27 6
25 22 30 29 26 33
1 0 0 0 0 0 0 3 2 3 4
10 5 1 10 6 1 9 4 5 6 7 8
6 9 5 7 4 2 5 4 27 6 7 8
8 3 5 2 10 1 10 4 5 6 7 8
7 4 7 5 6 4 4 4 9 10 11 12
10 2 5 9 9 7 6 4 9 10 11 12
8 9 3 4 5 2 10 4 9 10 11 12
3 1 3 9 9 9 8 3 9 11 12
7 10 9 2 7 4 2 4 13 14 15 16
3 5 4 10 5 4 2 4 13 14 15 16
6 6 8 7 6 4 7 4 13 14 15 16
9 3 6 10 4 1 1 4 13 14 15 16
1 9 8 7 4 9 2 3 17 18 19
8 7 2 7 8 7 7 2 17 19
8 9 1 8 5 6 7 4 17 18 19 20
7 6 4 4 1 3 7 3 17 18 19
3 7 1 9 2 8 10 4 21 22 23 24
2 2 9 2 4 5 9 4 21 22 23 24
2 1 10 2 4 10 8 4 21 22 23 24
7 7 1 5 7 3 2 3 21 22 23
7 1 3 1 8 8 10 2 25 26
2 4 5 4 7 8 10 2 25 26
8 1 1 5 7 4 6 2 25 26
9 2 2 9 8 5 3 2 25 26
6 2 4 3 3 8 9 1 27
9 6 1 4 3 5 7 1 27
0 0 0 0 0 0 0 0
